132 41 3 137 125 118 191 198 121 
4 188 15 90 12 19 84 39 99 152 65 7 
158 60 109 49 117 11 161 119 24 110 37 
87 141 164 133 195 88 194 102 10 32 
155 18 35 53 162 171 126 59 97 129 56 
63 44 135 72 95 142 159 82 127 58 108 
149 51 26 143 66 165 23 22 96 70 173 13 
140 153 54 89 6 189 43 107 147 28 80 
157 93 166 1 113 17 148 61 
196 145 146 92 112 163 98 62 103 154 74 45 114 
55 199 14 38 178 138 183 200 122 187 192 
106 186 71 64 27 25 182 78 139 185 197 75 
46 85 94 151 116 50 172 105 100 
120 36 130 5 131 181 9 174 83 81 
30 20 34 104 136 101 111 128 77 
73 115 48 176 160 180 167 179 190 150 
67 86 69 31 134 40 52 
57 21 124 170 42 
168 123 8 33 29 91 
2 16 76 177 47 
184 68 175 79 156 
193 144 
169 

